Cd12 Te15 H4 2 Te atoms in interface in lattice positions
1.0
4.678022 0.000000 0.000000
0.000000 8.102617 0.000000
0.000000 0.000000 43.000000
Cd Te H
12 14 4
Selective dynamics
direct
0.502990 0.163837 0.247580 F F F Cd
0.002975 0.997171 0.336408 F F F Cd
0.502960 0.830505 0.425237 T T T Cd
0.000008 0.659064 0.247928 F F F Cd
0.499993 0.492398 0.336756 F F F Cd
0.999978 0.325732 0.425584 T T T Cd
0.000126 0.165254 0.750139 F F F Cd
0.500111 0.998588 0.661310 F F F Cd
0.000096 0.831922 0.572480 T T T Cd
0.499989 0.667313 0.751464 F F F Cd
0.999974 0.500647 0.662635 F F F Cd
0.499959 0.333981 0.573806 T T T Cd
0.499991 0.828672 0.226604 F F F Te
0.999989 0.662005 0.315432 F F F Te
0.499987 0.495337 0.404260 T T T Te
0.001554 0.329220 0.225467 F F F Te
0.501552 0.162552 0.314295 F F F Te
0.001550 0.995885 0.403123 T T T Te
0.000143 0.831201 0.774178 F F F Te
0.500141 0.664535 0.685350 F F F Te
0.000139 0.497869 0.596522 T T T Te
0.499983 0.332600 0.772664 F F F Te
0.999981 0.165934 0.683836 F F F Te
0.499979 0.999268 0.595008 T T T Te
0.999989 0.662005 0.497636 T T T Te
0.501552 0.162552 0.496499 T T T Te
0.500297 0.332437 0.814337 F F F H
0.000607 0.833806 0.815852 F F F H
0.001466 0.331797 0.183860 F F F H
0.500883 0.829658 0.184997 F F F H

