Cd12 Te16 H4                            
   1.00000000000000     
     4.6780220000000003    0.0000000000000000    0.0000000000000000
     0.0000000000000000    8.1026170000000004    0.0000000000000000
     0.0000000000000000    0.0000000000000000   43.0000000000000000
   Cd   Te   H 
    12    16     4
Selective dynamics
Direct
  0.5029899999999969  0.0897879999999986  0.2475799999999992   F   F   F
  0.0000069999999965  0.5850130000000036  0.2479280000000017   F   F   F
  0.0005019999999973  0.9229899999999986  0.3328130000000016   F   F   F
  0.5047690000000031  0.4263049999999993  0.3400880000000015   F   F   F
  0.5002840000000006  0.7682319999999976  0.4251239999999967   F   F   F
  0.9867869999999996  0.2386470000000003  0.4260700000000028   F   F   F
  0.0067960000000014  0.7437749999999994  0.5720499999999973   F   F   F
  0.4998440000000031  0.2687170000000023  0.5735370000000017   F   F   F
  0.5000080000000011  0.9302899999999994  0.6585060000000027   F   F   F
  0.0006380000000021  0.4279620000000008  0.6655689999999979   F   F   F
  0.0001269999999991  0.0912039999999976  0.7501389999999972   F   F   F
  0.4999880000000019  0.5932620000000028  0.7514639999999986   F   F   F
  0.0015550000000033  0.2551699999999997  0.2254670000000019   F   F   F
  0.4999910000000014  0.7546210000000002  0.2266040000000018   F   F   F
  0.5019759999999991  0.0975060000000028  0.3138160000000028   F   F   F
  0.0044109999999975  0.5820480000000003  0.3149810000000031   F   F   F
  0.9996709999999993  0.9165350000000032  0.3988289999999992   F   F   F
  0.4887889999999970  0.4212709999999973  0.4072490000000002   F   F   F
  0.5026060000000001  0.9255009999999970  0.5913200000000032   F   F   F
  0.0000069999999965  0.4187730000000016  0.5991259999999983   F   F   F
  0.9999619999999965  0.0891230000000007  0.6836800000000025   F   F   F
  0.5024609999999967  0.6028939999999992  0.6848540000000014   F   F   F
  0.4999820000000028  0.2585490000000021  0.7726639999999989   F   F   F
  0.0001439999999988  0.7571500000000029  0.7741779999999991   F   F   F
 -0.0039662436749006  0.4436546090943266  0.4888484879597509   T   T   T
 -0.1985299966505598  0.9893823877959750  0.4711305953648850   T   T   T
 -0.0821938122673910  0.1652584766955827  0.5271824492222845   T   T   T
  0.3531556194839217  0.6459966942264614  0.5214151721982386   T   T   T
  0.0014660000000006  0.2577470000000019  0.1838600000000028   F   F   F
  0.5008819999999972  0.7556069999999977  0.1849970000000027   F   F   F
  0.5002959999999987  0.2583869999999990  0.8143370000000019   F   F   F
  0.0006070000000022  0.7597549999999984  0.8158519999999996   F   F   F
 
  0.00000000E+00  0.00000000E+00  0.00000000E+00
  0.00000000E+00  0.00000000E+00  0.00000000E+00
  0.00000000E+00  0.00000000E+00  0.00000000E+00
  0.00000000E+00  0.00000000E+00  0.00000000E+00
  0.00000000E+00  0.00000000E+00  0.00000000E+00
  0.00000000E+00  0.00000000E+00  0.00000000E+00
  0.00000000E+00  0.00000000E+00  0.00000000E+00
  0.00000000E+00  0.00000000E+00  0.00000000E+00
  0.00000000E+00  0.00000000E+00  0.00000000E+00
  0.00000000E+00  0.00000000E+00  0.00000000E+00
  0.00000000E+00  0.00000000E+00  0.00000000E+00
  0.00000000E+00  0.00000000E+00  0.00000000E+00
  0.00000000E+00  0.00000000E+00  0.00000000E+00
  0.00000000E+00  0.00000000E+00  0.00000000E+00
  0.00000000E+00  0.00000000E+00  0.00000000E+00
  0.00000000E+00  0.00000000E+00  0.00000000E+00
  0.00000000E+00  0.00000000E+00  0.00000000E+00
  0.00000000E+00  0.00000000E+00  0.00000000E+00
  0.00000000E+00  0.00000000E+00  0.00000000E+00
  0.00000000E+00  0.00000000E+00  0.00000000E+00
  0.00000000E+00  0.00000000E+00  0.00000000E+00
  0.00000000E+00  0.00000000E+00  0.00000000E+00
  0.00000000E+00  0.00000000E+00  0.00000000E+00
  0.00000000E+00  0.00000000E+00  0.00000000E+00
  0.00000000E+00  0.00000000E+00  0.00000000E+00
  0.00000000E+00  0.00000000E+00  0.00000000E+00
  0.00000000E+00  0.00000000E+00  0.00000000E+00
  0.00000000E+00  0.00000000E+00  0.00000000E+00
  0.00000000E+00  0.00000000E+00  0.00000000E+00
  0.00000000E+00  0.00000000E+00  0.00000000E+00
  0.00000000E+00  0.00000000E+00  0.00000000E+00
  0.00000000E+00  0.00000000E+00  0.00000000E+00
