Cd12 Te16 H4                            
   1.00000000000000     
     4.6780220000000003    0.0000000000000000    0.0000000000000000
     0.0000000000000000    8.1026170000000004    0.0000000000000000
     0.0000000000000000    0.0000000000000000   43.0000000000000000
   Cd   Te   H 
    12    16     4
Selective dynamics
Direct
  0.5029899999999969  0.1638370000000009  0.2475799999999992   F   F   F
  0.0029749999999993  0.9971710000000016  0.3364079999999987   F   F   F
  0.5799421560120678  0.7701160287671169  0.4282231885732105   T   T   T
  0.0000080000000011  0.6590640000000008  0.2479280000000017   F   F   F
  0.4999930000000035  0.4923980000000014  0.3367560000000012   F   F   F
 -0.0700014337013707  0.2705200649504013  0.4286641774469359   T   T   T
  0.0001260000000016  0.1652539999999973  0.7501389999999972   F   F   F
  0.5001109999999969  0.9985879999999980  0.6613100000000003   F   F   F
  0.0555357513786027  0.8856426322421195  0.5694897295202854   T   T   T
  0.4999889999999994  0.6673130000000000  0.7514639999999986   F   F   F
  0.9999740000000017  0.5006470000000007  0.6626350000000016   F   F   F
  0.4563217623137845  0.3876523576136675  0.5703218190064403   T   T   T
  0.4999910000000014  0.8286719999999974  0.2266040000000018   F   F   F
  0.9999889999999994  0.6620050000000006  0.3154320000000013   F   F   F
  0.4476704252009097  0.4483275925662253  0.4038411817475813   T   T   T
  0.0015539999999987  0.3292199999999994  0.2254670000000019   F   F   F
  0.5015519999999967  0.1625519999999980  0.3142950000000013   F   F   F
  0.0597932951784615 -0.0510639213772304  0.4034500374128017   T   T   T
  0.0001430000000013  0.8312010000000001  0.7741779999999991   F   F   F
  0.5001409999999993  0.6645350000000008  0.6853499999999997   F   F   F
 -0.0379143720666467  0.5530304699181549  0.5956717787203114   T   T   T
  0.4999830000000003  0.3325999999999993  0.7726639999999989   F   F   F
  0.9999809999999982  0.1659340000000000  0.6838359999999994   F   F   F
  0.5486554415208448  0.0515729175525952  0.5949233127353082   T   T   T
 -0.2209224001252918  0.2002362533387826  0.4943600261009261   T   T   T
  0.2286002340411429  0.9457420892436184  0.5039067101015129   T   T   T
  0.7372938941563196  0.6998948947238142  0.4940345079607386   T   T   T
  0.2882274233215025  0.4457734355758054  0.5044151807844663   T   T   T
  0.5002970000000033  0.3324369999999988  0.8143370000000019   F   F   F
  0.0006070000000022  0.8338060000000027  0.8158519999999996   F   F   F
  0.0014660000000006  0.3317970000000017  0.1838600000000028   F   F   F
  0.5008830000000017  0.8296580000000020  0.1849970000000027   F   F   F
 
  0.00000000E+00  0.00000000E+00  0.00000000E+00
  0.00000000E+00  0.00000000E+00  0.00000000E+00
  0.00000000E+00  0.00000000E+00  0.00000000E+00
  0.00000000E+00  0.00000000E+00  0.00000000E+00
  0.00000000E+00  0.00000000E+00  0.00000000E+00
  0.00000000E+00  0.00000000E+00  0.00000000E+00
  0.00000000E+00  0.00000000E+00  0.00000000E+00
  0.00000000E+00  0.00000000E+00  0.00000000E+00
  0.00000000E+00  0.00000000E+00  0.00000000E+00
  0.00000000E+00  0.00000000E+00  0.00000000E+00
  0.00000000E+00  0.00000000E+00  0.00000000E+00
  0.00000000E+00  0.00000000E+00  0.00000000E+00
  0.00000000E+00  0.00000000E+00  0.00000000E+00
  0.00000000E+00  0.00000000E+00  0.00000000E+00
  0.00000000E+00  0.00000000E+00  0.00000000E+00
  0.00000000E+00  0.00000000E+00  0.00000000E+00
  0.00000000E+00  0.00000000E+00  0.00000000E+00
  0.00000000E+00  0.00000000E+00  0.00000000E+00
  0.00000000E+00  0.00000000E+00  0.00000000E+00
  0.00000000E+00  0.00000000E+00  0.00000000E+00
  0.00000000E+00  0.00000000E+00  0.00000000E+00
  0.00000000E+00  0.00000000E+00  0.00000000E+00
  0.00000000E+00  0.00000000E+00  0.00000000E+00
  0.00000000E+00  0.00000000E+00  0.00000000E+00
  0.00000000E+00  0.00000000E+00  0.00000000E+00
  0.00000000E+00  0.00000000E+00  0.00000000E+00
  0.00000000E+00  0.00000000E+00  0.00000000E+00
  0.00000000E+00  0.00000000E+00  0.00000000E+00
  0.00000000E+00  0.00000000E+00  0.00000000E+00
  0.00000000E+00  0.00000000E+00  0.00000000E+00
  0.00000000E+00  0.00000000E+00  0.00000000E+00
  0.00000000E+00  0.00000000E+00  0.00000000E+00
