Cd12 Te17 H4                            
   1.00000000000000     
     4.6780220000000003    0.0000000000000000    0.0000000000000000
     0.0000000000000000    8.1026170000000004    0.0000000000000000
     0.0000000000000000    0.0000000000000000   43.0000000000000000
   Cd   Te   H 
    12    17     4
Selective dynamics
Direct
  0.5029899999999969  0.1638370000000009  0.2475799999999992   F   F   F
  0.0029749999999993  0.9971710000000016  0.3364079999999987   F   F   F
  0.5056133017827937  0.7935676940424472  0.4069133637968592   T   T   T
  0.0000080000000011  0.6590640000000008  0.2479280000000017   F   F   F
  0.4999930000000035  0.4923980000000014  0.3367560000000012   F   F   F
 -0.0056862629812463  0.2985852667136139  0.4443483675545404   T   T   T
  0.0001260000000016  0.1652539999999973  0.7501389999999972   F   F   F
  0.5001109999999969  0.9985879999999980  0.6613100000000003   F   F   F
  0.0098525018553591  0.6271387036014123  0.8513351260761444   T   T   T
  0.4999889999999994  0.6673130000000000  0.7514639999999986   F   F   F
  0.9999740000000017  0.5006470000000007  0.6626350000000016   F   F   F
  0.5003651054006999  0.3156009862174712  0.5944537058554100   T   T   T
  0.4999910000000014  0.8286719999999974  0.2266040000000018   F   F   F
  0.9999889999999994  0.6620050000000006  0.3154320000000013   F   F   F
  0.4991003194423839  0.4543354016472778  0.4025743290501286   T   T   T
  0.0015539999999987  0.3292199999999994  0.2254670000000019   F   F   F
  0.5015519999999967  0.1625519999999980  0.3142950000000013   F   F   F
  0.0047436732047209 -0.0117423679066833  0.4026700735599534   T   T   T
  0.0001430000000013  0.8312010000000001  0.7741779999999991   F   F   F
  0.5001409999999993  0.6645350000000008  0.6853499999999997   F   F   F
  0.0005829231940178  0.5168028600932648  0.5973811980864409   T   T   T
  0.4999830000000003  0.3325999999999993  0.7726639999999989   F   F   F
  0.9999809999999982  0.1659340000000000  0.6838359999999994   F   F   F
  0.5018574503206584 -0.0244866526776006  0.5968376259294127   T   T   T
 -0.4997330041740551  0.7990943307915055  0.2955710850940390   T   T   T
  0.5096961456098389 -0.5407972944652183 -0.1364277556455029   T   T   T
  0.0314841191334029  0.5334596978085114  0.1664257010280975   T   T   T
  0.4927383970666951  0.2760201319586903  0.4805728635588241   T   T   T
  0.0018642491562643  0.0125714272671293  0.2695624649430026   T   T   T
  0.5002970000000033  0.3324369999999988  0.8143370000000019   F   F   F
  0.0006070000000022  0.8338060000000027  0.8158519999999996   F   F   F
  0.0014660000000006  0.3317970000000017  0.1838600000000028   F   F   F
  0.5008830000000017  0.8296580000000020  0.1849970000000027   F   F   F
 
  0.00000000E+00  0.00000000E+00  0.00000000E+00
  0.00000000E+00  0.00000000E+00  0.00000000E+00
  0.00000000E+00  0.00000000E+00  0.00000000E+00
  0.00000000E+00  0.00000000E+00  0.00000000E+00
  0.00000000E+00  0.00000000E+00  0.00000000E+00
  0.00000000E+00  0.00000000E+00  0.00000000E+00
  0.00000000E+00  0.00000000E+00  0.00000000E+00
  0.00000000E+00  0.00000000E+00  0.00000000E+00
  0.00000000E+00  0.00000000E+00  0.00000000E+00
  0.00000000E+00  0.00000000E+00  0.00000000E+00
  0.00000000E+00  0.00000000E+00  0.00000000E+00
  0.00000000E+00  0.00000000E+00  0.00000000E+00
  0.00000000E+00  0.00000000E+00  0.00000000E+00
  0.00000000E+00  0.00000000E+00  0.00000000E+00
  0.00000000E+00  0.00000000E+00  0.00000000E+00
  0.00000000E+00  0.00000000E+00  0.00000000E+00
  0.00000000E+00  0.00000000E+00  0.00000000E+00
  0.00000000E+00  0.00000000E+00  0.00000000E+00
  0.00000000E+00  0.00000000E+00  0.00000000E+00
  0.00000000E+00  0.00000000E+00  0.00000000E+00
  0.00000000E+00  0.00000000E+00  0.00000000E+00
  0.00000000E+00  0.00000000E+00  0.00000000E+00
  0.00000000E+00  0.00000000E+00  0.00000000E+00
  0.00000000E+00  0.00000000E+00  0.00000000E+00
  0.00000000E+00  0.00000000E+00  0.00000000E+00
  0.00000000E+00  0.00000000E+00  0.00000000E+00
  0.00000000E+00  0.00000000E+00  0.00000000E+00
  0.00000000E+00  0.00000000E+00  0.00000000E+00
  0.00000000E+00  0.00000000E+00  0.00000000E+00
  0.00000000E+00  0.00000000E+00  0.00000000E+00
  0.00000000E+00  0.00000000E+00  0.00000000E+00
  0.00000000E+00  0.00000000E+00  0.00000000E+00
  0.00000000E+00  0.00000000E+00  0.00000000E+00
