Cd12 Te15 H4                            
   1.00000000000000     
     4.6780220000000003    0.0000000000000000    0.0000000000000000
     0.0000000000000000    8.1026170000000004    0.0000000000000000
     0.0000000000000000    0.0000000000000000   43.0000000000000000
   Cd   Te   H 
    12    15     4
Selective dynamics
Direct
  0.5029899999999969  0.1638370000000009  0.2475799999999992   F   F   F
  0.0029749999999993  0.9971710000000016  0.3364079999999987   F   F   F
  0.4982360708784906  0.8753108784332085  0.4330199121727061   T   T   T
  0.0000080000000011  0.6590640000000008  0.2479280000000017   F   F   F
  0.4999930000000035  0.4923980000000014  0.3367560000000012   F   F   F
  0.0017081812063265  0.3513439678672162  0.4171526182750125   T   T   T
  0.0001260000000016  0.1652539999999973  0.7501389999999972   F   F   F
  0.5001109999999969  0.9985879999999980  0.6613100000000003   F   F   F
  0.0105189512621510  0.8048615722898076  0.5722743485032233   T   T   T
  0.4999889999999994  0.6673130000000000  0.7514639999999986   F   F   F
  0.9999740000000017  0.5006470000000007  0.6626350000000016   F   F   F
  0.5135050410688581  0.3280525272735660  0.5704572637636520   T   T   T
  0.4999910000000014  0.8286719999999974  0.2266040000000018   F   F   F
  0.9999889999999994  0.6620050000000006  0.3154320000000013   F   F   F
  0.5010762617520178  0.5366414212406182  0.4050467378139637   T   T   T
  0.0015539999999987  0.3292199999999994  0.2254670000000019   F   F   F
  0.5015519999999967  0.1625519999999980  0.3142950000000013   F   F   F
 -0.0008537849456121  0.0128659124986975  0.4029955699332470   T   T   T
  0.0001430000000013  0.8312010000000001  0.7741779999999991   F   F   F
  0.5001409999999993  0.6645350000000008  0.6853499999999997   F   F   F
  0.0125354073933631  0.4787616855333954  0.5981262683945259   T   T   T
  0.4999830000000003  0.3325999999999993  0.7726639999999989   F   F   F
  0.9999809999999982  0.1659340000000000  0.6838359999999994   F   F   F
  0.5097622359108364 -0.0123654234477930  0.5931153187343000   T   T   T
  0.0070615518167556  0.6969418179936062  0.5064166490676628   T   T   T
  0.5081983982837790 -0.0553562217863414  0.4962137330935298   T   T   T
  0.5095086332136836  0.4411258583942531  0.5083552033778382   T   T   T
  0.5002970000000033  0.3324369999999988  0.8143370000000019   F   F   F
  0.0006070000000022  0.8338060000000027  0.8158519999999996   F   F   F
  0.0014660000000006  0.3317970000000017  0.1838600000000028   F   F   F
  0.5008830000000017  0.8296580000000020  0.1849970000000027   F   F   F
 
  0.00000000E+00  0.00000000E+00  0.00000000E+00
  0.00000000E+00  0.00000000E+00  0.00000000E+00
  0.00000000E+00  0.00000000E+00  0.00000000E+00
  0.00000000E+00  0.00000000E+00  0.00000000E+00
  0.00000000E+00  0.00000000E+00  0.00000000E+00
  0.00000000E+00  0.00000000E+00  0.00000000E+00
  0.00000000E+00  0.00000000E+00  0.00000000E+00
  0.00000000E+00  0.00000000E+00  0.00000000E+00
  0.00000000E+00  0.00000000E+00  0.00000000E+00
  0.00000000E+00  0.00000000E+00  0.00000000E+00
  0.00000000E+00  0.00000000E+00  0.00000000E+00
  0.00000000E+00  0.00000000E+00  0.00000000E+00
  0.00000000E+00  0.00000000E+00  0.00000000E+00
  0.00000000E+00  0.00000000E+00  0.00000000E+00
  0.00000000E+00  0.00000000E+00  0.00000000E+00
  0.00000000E+00  0.00000000E+00  0.00000000E+00
  0.00000000E+00  0.00000000E+00  0.00000000E+00
  0.00000000E+00  0.00000000E+00  0.00000000E+00
  0.00000000E+00  0.00000000E+00  0.00000000E+00
  0.00000000E+00  0.00000000E+00  0.00000000E+00
  0.00000000E+00  0.00000000E+00  0.00000000E+00
  0.00000000E+00  0.00000000E+00  0.00000000E+00
  0.00000000E+00  0.00000000E+00  0.00000000E+00
  0.00000000E+00  0.00000000E+00  0.00000000E+00
  0.00000000E+00  0.00000000E+00  0.00000000E+00
  0.00000000E+00  0.00000000E+00  0.00000000E+00
  0.00000000E+00  0.00000000E+00  0.00000000E+00
  0.00000000E+00  0.00000000E+00  0.00000000E+00
  0.00000000E+00  0.00000000E+00  0.00000000E+00
  0.00000000E+00  0.00000000E+00  0.00000000E+00
  0.00000000E+00  0.00000000E+00  0.00000000E+00
