Cd12 Te16 H4                            
   1.00000000000000     
     4.6780220000000003    0.0000000000000000    0.0000000000000000
     0.0000000000000000    8.1026170000000004    0.0000000000000000
     0.0000000000000000    0.0000000000000000   43.0000000000000000
   Cd   Te   H 
    12    16     4
Selective dynamics
Direct
  0.5029899999999969  0.1638370000000009  0.2475799999999992   F   F   F
  0.0029749999999993  0.9971710000000016  0.3364079999999987   F   F   F
  0.4731276691018485  0.8357672599566169  0.4265626638524275   T   T   T
  0.0000080000000011  0.6590640000000008  0.2479280000000017   F   F   F
  0.4999930000000035  0.4923980000000014  0.3367560000000012   F   F   F
  0.9749567774278470  0.3214119010291193  0.4275639996355606   T   T   T
  0.0001260000000016  0.1652539999999973  0.7501389999999972   F   F   F
  0.5001109999999969  0.9985879999999980  0.6613100000000003   F   F   F
 -0.0246881804438815  0.8213658394424619  0.5713520222931214   T   T   T
  0.4999889999999994  0.6673130000000000  0.7514639999999986   F   F   F
  0.9999740000000017  0.5006470000000007  0.6626350000000016   F   F   F
  0.4748236881355908  0.3373358157604244  0.5722030314975660   T   T   T
  0.4999910000000014  0.8286719999999974  0.2266040000000018   F   F   F
  0.9999889999999994  0.6620050000000006  0.3154320000000013   F   F   F
  0.4771171406432786  0.4963821172491916  0.4052946223209744   T   T   T
  0.0015539999999987  0.3292199999999994  0.2254670000000019   F   F   F
  0.5015519999999967  0.1625519999999980  0.3142950000000013   F   F   F
 -0.0247274744153861  0.9927244293583412  0.4012001846687742   T   T   T
  0.0001430000000013  0.8312010000000001  0.7741779999999991   F   F   F
  0.5001409999999993  0.6645350000000008  0.6853499999999997   F   F   F
 -0.0237434721522447  0.4936763918386857  0.5978672592023841   T   T   T
  0.4999830000000003  0.3325999999999993  0.7726639999999989   F   F   F
  0.9999809999999982  0.1659340000000000  0.6838359999999994   F   F   F
  0.4773465061957335 -0.0023321540188994  0.5932194250808834   T   T   T
  0.4759639814637087  0.4509715692897859  0.5088859998034619   T   T   T
  0.9753542159291974  0.7149445854798585  0.5072449462007826   T   T   T
  0.9749935571476739  0.2148662937794456  0.4916426288723296   T   T   T
  0.4754619187777344  0.9510260818213229  0.4901608263225593   T   T   T
  0.5002970000000033  0.3324369999999988  0.8143370000000019   F   F   F
  0.0006070000000022  0.8338060000000027  0.8158519999999996   F   F   F
  0.0014660000000006  0.3317970000000017  0.1838600000000028   F   F   F
  0.5008830000000017  0.8296580000000020  0.1849970000000027   F   F   F
 
  0.00000000E+00  0.00000000E+00  0.00000000E+00
  0.00000000E+00  0.00000000E+00  0.00000000E+00
  0.00000000E+00  0.00000000E+00  0.00000000E+00
  0.00000000E+00  0.00000000E+00  0.00000000E+00
  0.00000000E+00  0.00000000E+00  0.00000000E+00
  0.00000000E+00  0.00000000E+00  0.00000000E+00
  0.00000000E+00  0.00000000E+00  0.00000000E+00
  0.00000000E+00  0.00000000E+00  0.00000000E+00
  0.00000000E+00  0.00000000E+00  0.00000000E+00
  0.00000000E+00  0.00000000E+00  0.00000000E+00
  0.00000000E+00  0.00000000E+00  0.00000000E+00
  0.00000000E+00  0.00000000E+00  0.00000000E+00
  0.00000000E+00  0.00000000E+00  0.00000000E+00
  0.00000000E+00  0.00000000E+00  0.00000000E+00
  0.00000000E+00  0.00000000E+00  0.00000000E+00
  0.00000000E+00  0.00000000E+00  0.00000000E+00
  0.00000000E+00  0.00000000E+00  0.00000000E+00
  0.00000000E+00  0.00000000E+00  0.00000000E+00
  0.00000000E+00  0.00000000E+00  0.00000000E+00
  0.00000000E+00  0.00000000E+00  0.00000000E+00
  0.00000000E+00  0.00000000E+00  0.00000000E+00
  0.00000000E+00  0.00000000E+00  0.00000000E+00
  0.00000000E+00  0.00000000E+00  0.00000000E+00
  0.00000000E+00  0.00000000E+00  0.00000000E+00
  0.00000000E+00  0.00000000E+00  0.00000000E+00
  0.00000000E+00  0.00000000E+00  0.00000000E+00
  0.00000000E+00  0.00000000E+00  0.00000000E+00
  0.00000000E+00  0.00000000E+00  0.00000000E+00
  0.00000000E+00  0.00000000E+00  0.00000000E+00
  0.00000000E+00  0.00000000E+00  0.00000000E+00
  0.00000000E+00  0.00000000E+00  0.00000000E+00
  0.00000000E+00  0.00000000E+00  0.00000000E+00
