Cd12 Te16 H4                            
   1.00000000000000     
     4.6780220000000003    0.0000000000000000    0.0000000000000000
     0.0000000000000000    8.1026170000000004    0.0000000000000000
     0.0000000000000000    0.0000000000000000   43.0000000000000000
   Cd   Te   H 
    12    16     4
Selective dynamics
Direct
  0.5029899999999969  0.1638370000000009  0.2475799999999992   F   F   F
  0.0029749999999993  0.9971710000000016  0.3364079999999987   F   F   F
  0.4746607570829256  0.8160036971793019  0.4245168260794514   T   T   T
  0.0000080000000011  0.6590640000000008  0.2479280000000017   F   F   F
  0.4999930000000035  0.4923980000000014  0.3367560000000012   F   F   F
 -0.0207906714912799  0.3210261229820398  0.4287089984770957   T   T   T
  0.0001260000000016  0.1652539999999973  0.7501389999999972   F   F   F
  0.5001109999999969  0.9985879999999980  0.6613100000000003   F   F   F
 -0.0072102273418259  0.8793127128313277  0.5734835974067630   T   T   T
  0.4999889999999994  0.6673130000000000  0.7514639999999986   F   F   F
  0.9999740000000017  0.5006470000000007  0.6626350000000016   F   F   F
  0.5084050984287531  0.4326051405577532  0.5687187048617264   T   T   T
  0.4999910000000014  0.8286719999999974  0.2266040000000018   F   F   F
  0.9999889999999994  0.6620050000000006  0.3154320000000013   F   F   F
  0.4771484938560266  0.4646030060950148  0.4014945481144377   T   T   T
  0.0015539999999987  0.3292199999999994  0.2254670000000019   F   F   F
  0.5015519999999967  0.1625519999999980  0.3142950000000013   F   F   F
 -0.0175482851498247  0.9784804305052454  0.4010068735209679   T   T   T
  0.0001430000000013  0.8312010000000001  0.7741779999999991   F   F   F
  0.5001409999999993  0.6645350000000008  0.6853499999999997   F   F   F
  0.0086998546762395  0.5439656713524083  0.5996164248300299   T   T   T
  0.4999830000000003  0.3325999999999993  0.7726639999999989   F   F   F
  0.9999809999999982  0.1659340000000000  0.6838359999999994   F   F   F
  0.4859321610008209  0.0634234735148697  0.5968884449909917   T   T   T
  0.0173013658331919  0.1186639397457677  0.4834382171016178   T   T   T
  0.5140715454374648  0.2035590235156639  0.5148842337395557   T   T   T
  0.6054854230544080  0.6132828939026319  0.4750104464519101   T   T   T
  0.5240850439798173  0.7457444252673011  0.5330091409663174   T   T   T
  0.5002970000000033  0.3324369999999988  0.8143370000000019   F   F   F
  0.0006070000000022  0.8338060000000027  0.8158519999999996   F   F   F
  0.0014660000000006  0.3317970000000017  0.1838600000000028   F   F   F
  0.5008830000000017  0.8296580000000020  0.1849970000000027   F   F   F
 
  0.00000000E+00  0.00000000E+00  0.00000000E+00
  0.00000000E+00  0.00000000E+00  0.00000000E+00
  0.00000000E+00  0.00000000E+00  0.00000000E+00
  0.00000000E+00  0.00000000E+00  0.00000000E+00
  0.00000000E+00  0.00000000E+00  0.00000000E+00
  0.00000000E+00  0.00000000E+00  0.00000000E+00
  0.00000000E+00  0.00000000E+00  0.00000000E+00
  0.00000000E+00  0.00000000E+00  0.00000000E+00
  0.00000000E+00  0.00000000E+00  0.00000000E+00
  0.00000000E+00  0.00000000E+00  0.00000000E+00
  0.00000000E+00  0.00000000E+00  0.00000000E+00
  0.00000000E+00  0.00000000E+00  0.00000000E+00
  0.00000000E+00  0.00000000E+00  0.00000000E+00
  0.00000000E+00  0.00000000E+00  0.00000000E+00
  0.00000000E+00  0.00000000E+00  0.00000000E+00
  0.00000000E+00  0.00000000E+00  0.00000000E+00
  0.00000000E+00  0.00000000E+00  0.00000000E+00
  0.00000000E+00  0.00000000E+00  0.00000000E+00
  0.00000000E+00  0.00000000E+00  0.00000000E+00
  0.00000000E+00  0.00000000E+00  0.00000000E+00
  0.00000000E+00  0.00000000E+00  0.00000000E+00
  0.00000000E+00  0.00000000E+00  0.00000000E+00
  0.00000000E+00  0.00000000E+00  0.00000000E+00
  0.00000000E+00  0.00000000E+00  0.00000000E+00
  0.00000000E+00  0.00000000E+00  0.00000000E+00
  0.00000000E+00  0.00000000E+00  0.00000000E+00
  0.00000000E+00  0.00000000E+00  0.00000000E+00
  0.00000000E+00  0.00000000E+00  0.00000000E+00
  0.00000000E+00  0.00000000E+00  0.00000000E+00
  0.00000000E+00  0.00000000E+00  0.00000000E+00
  0.00000000E+00  0.00000000E+00  0.00000000E+00
  0.00000000E+00  0.00000000E+00  0.00000000E+00
